p cnf 565 1650
c inputs: 1 2 3 4 5 6 7 8 9 10 11 12 13 14 15
c variables for gates: 16 ... 550
c outputs: 551 552 553 554 555 556 557 558 559 560 561 562 563 564 565
c random input: 1 2 -3 -4 5 -6 7 8 -9 10 11 -12 13 14 15
16 -1 -8 0
-16 1 0
-16 8 0
17 -1 -9 0
-17 1 0
-17 9 0
18 -1 -10 0
-18 1 0
-18 10 0
19 -1 -11 0
-19 1 0
-19 11 0
20 -1 -12 0
-20 1 0
-20 12 0
21 -1 -13 0
-21 1 0
-21 13 0
22 -1 -14 0
-22 1 0
-22 14 0
23 -1 -15 0
-23 1 0
-23 15 0
24 -2 -8 0
-24 2 0
-24 8 0
25 -2 -9 0
-25 2 0
-25 9 0
26 -2 -10 0
-26 2 0
-26 10 0
27 -2 -11 0
-27 2 0
-27 11 0
28 -2 -12 0
-28 2 0
-28 12 0
29 -2 -13 0
-29 2 0
-29 13 0
30 -2 -14 0
-30 2 0
-30 14 0
31 -2 -15 0
-31 2 0
-31 15 0
32 -3 -8 0
-32 3 0
-32 8 0
33 -3 -9 0
-33 3 0
-33 9 0
34 -3 -10 0
-34 3 0
-34 10 0
35 -3 -11 0
-35 3 0
-35 11 0
36 -3 -12 0
-36 3 0
-36 12 0
37 -3 -13 0
-37 3 0
-37 13 0
38 -3 -14 0
-38 3 0
-38 14 0
39 -3 -15 0
-39 3 0
-39 15 0
40 -4 -8 0
-40 4 0
-40 8 0
41 -4 -9 0
-41 4 0
-41 9 0
42 -4 -10 0
-42 4 0
-42 10 0
43 -4 -11 0
-43 4 0
-43 11 0
44 -4 -12 0
-44 4 0
-44 12 0
45 -4 -13 0
-45 4 0
-45 13 0
46 -4 -14 0
-46 4 0
-46 14 0
47 -4 -15 0
-47 4 0
-47 15 0
48 -5 -8 0
-48 5 0
-48 8 0
49 -5 -9 0
-49 5 0
-49 9 0
50 -5 -10 0
-50 5 0
-50 10 0
51 -5 -11 0
-51 5 0
-51 11 0
52 -5 -12 0
-52 5 0
-52 12 0
53 -5 -13 0
-53 5 0
-53 13 0
54 -5 -14 0
-54 5 0
-54 14 0
55 -5 -15 0
-55 5 0
-55 15 0
56 -6 -8 0
-56 6 0
-56 8 0
57 -6 -9 0
-57 6 0
-57 9 0
58 -6 -10 0
-58 6 0
-58 10 0
59 -6 -11 0
-59 6 0
-59 11 0
60 -6 -12 0
-60 6 0
-60 12 0
61 -6 -13 0
-61 6 0
-61 13 0
62 -6 -14 0
-62 6 0
-62 14 0
63 -6 -15 0
-63 6 0
-63 15 0
64 -7 -8 0
-64 7 0
-64 8 0
65 -7 -9 0
-65 7 0
-65 9 0
66 -7 -10 0
-66 7 0
-66 10 0
67 -7 -11 0
-67 7 0
-67 11 0
68 -7 -12 0
-68 7 0
-68 12 0
69 -7 -13 0
-69 7 0
-69 13 0
70 -7 -14 0
-70 7 0
-70 14 0
71 -7 -15 0
-71 7 0
-71 15 0
72 -57 -64 0
-72 57 0
-72 64 0
73 -64 57 0
-73 64 0
-73 -57 0
74 -57 64 0
-74 57 0
-74 -64 0
75 74 73 0
-75 -74 0
-75 -73 0
76 -65 -72 0
-76 65 0
-76 72 0
77 -58 -72 0
-77 58 0
-77 72 0
78 -58 -65 0
-78 58 0
-78 65 0
79 78 77 0
-79 -78 0
-79 -77 0
80 76 -79 0
-80 -76 0
-80 79 0
81 -65 58 0
-81 65 0
-81 -58 0
82 -58 65 0
-82 58 0
-82 -65 0
83 82 81 0
-83 -82 0
-83 -81 0
84 -72 -83 0
-84 72 0
-84 83 0
85 72 83 0
-85 -72 0
-85 -83 0
86 85 84 0
-86 -85 0
-86 -84 0
87 -66 80 0
-87 66 0
-87 -80 0
88 66 80 0
-88 -66 0
-88 -80 0
89 -66 -80 0
-89 66 0
-89 80 0
90 88 89 0
-90 -88 0
-90 -89 0
91 -41 -48 0
-91 41 0
-91 48 0
92 -48 41 0
-92 48 0
-92 -41 0
93 -41 48 0
-93 41 0
-93 -48 0
94 92 93 0
-94 -92 0
-94 -93 0
95 -56 -91 0
-95 56 0
-95 91 0
96 -49 -91 0
-96 49 0
-96 91 0
97 -56 -49 0
-97 56 0
-97 49 0
98 97 96 0
-98 -97 0
-98 -96 0
99 95 -98 0
-99 -95 0
-99 98 0
100 -56 49 0
-100 56 0
-100 -49 0
101 -49 56 0
-101 49 0
-101 -56 0
102 100 101 0
-102 -100 0
-102 -101 0
103 -91 -102 0
-103 91 0
-103 102 0
104 91 102 0
-104 -91 0
-104 -102 0
105 104 103 0
-105 -104 0
-105 -103 0
106 -42 105 0
-106 42 0
-106 -105 0
107 42 105 0
-107 -42 0
-107 -105 0
108 -42 -105 0
-108 42 0
-108 105 0
109 107 108 0
-109 -107 0
-109 -108 0
110 99 -106 0
-110 -99 0
-110 106 0
111 75 -106 0
-111 -75 0
-111 106 0
112 75 99 0
-112 -75 0
-112 -99 0
113 112 111 0
-113 -112 0
-113 -111 0
114 -113 110 0
-114 113 0
-114 -110 0
115 -75 99 0
-115 75 0
-115 -99 0
116 75 -99 0
-116 -75 0
-116 99 0
117 116 115 0
-117 -116 0
-117 -115 0
118 -117 -106 0
-118 117 0
-118 106 0
119 117 106 0
-119 -117 0
-119 -106 0
120 118 119 0
-120 -118 0
-120 -119 0
121 -50 120 0
-121 50 0
-121 -120 0
122 -43 120 0
-122 43 0
-122 -120 0
123 -43 -50 0
-123 43 0
-123 50 0
124 123 122 0
-124 -123 0
-124 -122 0
125 121 -124 0
-125 -121 0
-125 124 0
126 -50 43 0
-126 50 0
-126 -43 0
127 -43 50 0
-127 43 0
-127 -50 0
128 126 127 0
-128 -126 0
-128 -127 0
129 -128 120 0
-129 128 0
-129 -120 0
130 128 -120 0
-130 -128 0
-130 120 0
131 129 130 0
-131 -129 0
-131 -130 0
132 114 125 0
-132 -114 0
-132 -125 0
133 86 125 0
-133 -86 0
-133 -125 0
134 86 114 0
-134 -86 0
-134 -114 0
135 134 133 0
-135 -134 0
-135 -133 0
136 132 -135 0
-136 -132 0
-136 135 0
137 -86 114 0
-137 86 0
-137 -114 0
138 86 -114 0
-138 -86 0
-138 114 0
139 138 137 0
-139 -138 0
-139 -137 0
140 -139 125 0
-140 139 0
-140 -125 0
141 139 -125 0
-141 -139 0
-141 125 0
142 140 141 0
-142 -140 0
-142 -141 0
143 -51 142 0
-143 51 0
-143 -142 0
144 -44 142 0
-144 44 0
-144 -142 0
145 -44 -51 0
-145 44 0
-145 51 0
146 145 144 0
-146 -145 0
-146 -144 0
147 143 -146 0
-147 -143 0
-147 146 0
148 -51 44 0
-148 51 0
-148 -44 0
149 -44 51 0
-149 44 0
-149 -51 0
150 148 149 0
-150 -148 0
-150 -149 0
151 -150 142 0
-151 150 0
-151 -142 0
152 150 -142 0
-152 -150 0
-152 142 0
153 151 152 0
-153 -151 0
-153 -152 0
154 136 147 0
-154 -136 0
-154 -147 0
155 90 147 0
-155 -90 0
-155 -147 0
156 90 136 0
-156 -90 0
-156 -136 0
157 156 155 0
-157 -156 0
-157 -155 0
158 -157 154 0
-158 157 0
-158 -154 0
159 -90 136 0
-159 90 0
-159 -136 0
160 90 -136 0
-160 -90 0
-160 136 0
161 160 159 0
-161 -160 0
-161 -159 0
162 -161 147 0
-162 161 0
-162 -147 0
163 161 -147 0
-163 -161 0
-163 147 0
164 163 162 0
-164 -163 0
-164 -162 0
165 -59 164 0
-165 59 0
-165 -164 0
166 -52 164 0
-166 52 0
-166 -164 0
167 -59 -52 0
-167 59 0
-167 52 0
168 167 166 0
-168 -167 0
-168 -166 0
169 165 -168 0
-169 -165 0
-169 168 0
170 -59 52 0
-170 59 0
-170 -52 0
171 -52 59 0
-171 52 0
-171 -59 0
172 170 171 0
-172 -170 0
-172 -171 0
173 -172 164 0
-173 172 0
-173 -164 0
174 172 -164 0
-174 -172 0
-174 164 0
175 174 173 0
-175 -174 0
-175 -173 0
176 158 169 0
-176 -158 0
-176 -169 0
177 -87 169 0
-177 87 0
-177 -169 0
178 -87 158 0
-178 87 0
-178 -158 0
179 177 178 0
-179 -177 0
-179 -178 0
180 -179 176 0
-180 179 0
-180 -176 0
181 87 158 0
-181 -87 0
-181 -158 0
182 -87 -158 0
-182 87 0
-182 158 0
183 181 182 0
-183 -181 0
-183 -182 0
184 -183 169 0
-184 183 0
-184 -169 0
185 183 -169 0
-185 -183 0
-185 169 0
186 184 185 0
-186 -184 0
-186 -185 0
187 -67 186 0
-187 67 0
-187 -186 0
188 -60 186 0
-188 60 0
-188 -186 0
189 -60 -67 0
-189 60 0
-189 67 0
190 189 188 0
-190 -189 0
-190 -188 0
191 187 -190 0
-191 -187 0
-191 190 0
192 -67 60 0
-192 67 0
-192 -60 0
193 -60 67 0
-193 60 0
-193 -67 0
194 193 192 0
-194 -193 0
-194 -192 0
195 -194 186 0
-195 194 0
-195 -186 0
196 194 -186 0
-196 -194 0
-196 186 0
197 196 195 0
-197 -196 0
-197 -195 0
198 191 180 0
-198 -191 0
-198 -180 0
199 -68 191 0
-199 68 0
-199 -191 0
200 -68 180 0
-200 68 0
-200 -180 0
201 199 200 0
-201 -199 0
-201 -200 0
202 -201 198 0
-202 201 0
-202 -198 0
203 68 180 0
-203 -68 0
-203 -180 0
204 -68 -180 0
-204 68 0
-204 180 0
205 204 203 0
-205 -204 0
-205 -203 0
206 191 -205 0
-206 -191 0
-206 205 0
207 -191 205 0
-207 191 0
-207 -205 0
208 207 206 0
-208 -207 0
-208 -206 0
209 -40 -33 0
-209 40 0
-209 33 0
210 -40 33 0
-210 40 0
-210 -33 0
211 -33 40 0
-211 33 0
-211 -40 0
212 211 210 0
-212 -211 0
-212 -210 0
213 -209 94 0
-213 209 0
-213 -94 0
214 -34 -209 0
-214 34 0
-214 209 0
215 -34 94 0
-215 34 0
-215 -94 0
216 214 215 0
-216 -214 0
-216 -215 0
217 213 -216 0
-217 -213 0
-217 216 0
218 34 94 0
-218 -34 0
-218 -94 0
219 -34 -94 0
-219 34 0
-219 94 0
220 219 218 0
-220 -219 0
-220 -218 0
221 -209 -220 0
-221 209 0
-221 220 0
222 209 220 0
-222 -209 0
-222 -220 0
223 221 222 0
-223 -221 0
-223 -222 0
224 217 109 0
-224 -217 0
-224 -109 0
225 -35 217 0
-225 35 0
-225 -217 0
226 -35 109 0
-226 35 0
-226 -109 0
227 225 226 0
-227 -225 0
-227 -226 0
228 224 -227 0
-228 -224 0
-228 227 0
229 35 109 0
-229 -35 0
-229 -109 0
230 -35 -109 0
-230 35 0
-230 109 0
231 230 229 0
-231 -230 0
-231 -229 0
232 217 -231 0
-232 -217 0
-232 231 0
233 -217 231 0
-233 217 0
-233 -231 0
234 233 232 0
-234 -233 0
-234 -232 0
235 131 228 0
-235 -131 0
-235 -228 0
236 -36 228 0
-236 36 0
-236 -228 0
237 -36 131 0
-237 36 0
-237 -131 0
238 237 236 0
-238 -237 0
-238 -236 0
239 235 -238 0
-239 -235 0
-239 238 0
240 36 131 0
-240 -36 0
-240 -131 0
241 -36 -131 0
-241 36 0
-241 131 0
242 241 240 0
-242 -241 0
-242 -240 0
243 228 -242 0
-243 -228 0
-243 242 0
244 -228 242 0
-244 228 0
-244 -242 0
245 243 244 0
-245 -243 0
-245 -244 0
246 239 153 0
-246 -239 0
-246 -153 0
247 -37 239 0
-247 37 0
-247 -239 0
248 -37 153 0
-248 37 0
-248 -153 0
249 247 248 0
-249 -247 0
-249 -248 0
250 246 -249 0
-250 -246 0
-250 249 0
251 37 153 0
-251 -37 0
-251 -153 0
252 -37 -153 0
-252 37 0
-252 153 0
253 252 251 0
-253 -252 0
-253 -251 0
254 239 -253 0
-254 -239 0
-254 253 0
255 -239 253 0
-255 239 0
-255 -253 0
256 255 254 0
-256 -255 0
-256 -254 0
257 175 250 0
-257 -175 0
-257 -250 0
258 -45 250 0
-258 45 0
-258 -250 0
259 -45 175 0
-259 45 0
-259 -175 0
260 259 258 0
-260 -259 0
-260 -258 0
261 257 -260 0
-261 -257 0
-261 260 0
262 45 175 0
-262 -45 0
-262 -175 0
263 -45 -175 0
-263 45 0
-263 175 0
264 263 262 0
-264 -263 0
-264 -262 0
265 -264 250 0
-265 264 0
-265 -250 0
266 264 -250 0
-266 -264 0
-266 250 0
267 265 266 0
-267 -265 0
-267 -266 0
268 261 197 0
-268 -261 0
-268 -197 0
269 -53 261 0
-269 53 0
-269 -261 0
270 -53 197 0
-270 53 0
-270 -197 0
271 269 270 0
-271 -269 0
-271 -270 0
272 268 -271 0
-272 -268 0
-272 271 0
273 53 197 0
-273 -53 0
-273 -197 0
274 -53 -197 0
-274 53 0
-274 197 0
275 274 273 0
-275 -274 0
-275 -273 0
276 -275 261 0
-276 275 0
-276 -261 0
277 275 -261 0
-277 -275 0
-277 261 0
278 277 276 0
-278 -277 0
-278 -276 0
279 272 208 0
-279 -272 0
-279 -208 0
280 -61 272 0
-280 61 0
-280 -272 0
281 -61 208 0
-281 61 0
-281 -208 0
282 280 281 0
-282 -280 0
-282 -281 0
283 -282 279 0
-283 282 0
-283 -279 0
284 61 208 0
-284 -61 0
-284 -208 0
285 -61 -208 0
-285 61 0
-285 208 0
286 285 284 0
-286 -285 0
-286 -284 0
287 272 -286 0
-287 -272 0
-287 286 0
288 -272 286 0
-288 272 0
-288 -286 0
289 287 288 0
-289 -287 0
-289 -288 0
290 283 202 0
-290 -283 0
-290 -202 0
291 -69 283 0
-291 69 0
-291 -283 0
292 -69 202 0
-292 69 0
-292 -202 0
293 291 292 0
-293 -291 0
-293 -292 0
294 290 -293 0
-294 -290 0
-294 293 0
295 69 202 0
-295 -69 0
-295 -202 0
296 -69 -202 0
-296 69 0
-296 202 0
297 296 295 0
-297 -296 0
-297 -295 0
298 -297 283 0
-298 297 0
-298 -283 0
299 297 -283 0
-299 -297 0
-299 283 0
300 298 299 0
-300 -298 0
-300 -299 0
301 -25 -32 0
-301 25 0
-301 32 0
302 -32 25 0
-302 32 0
-302 -25 0
303 -25 32 0
-303 25 0
-303 -32 0
304 302 303 0
-304 -302 0
-304 -303 0
305 -301 212 0
-305 301 0
-305 -212 0
306 -26 -301 0
-306 26 0
-306 301 0
307 -26 212 0
-307 26 0
-307 -212 0
308 306 307 0
-308 -306 0
-308 -307 0
309 305 -308 0
-309 -305 0
-309 308 0
310 26 212 0
-310 -26 0
-310 -212 0
311 -26 -212 0
-311 26 0
-311 212 0
312 311 310 0
-312 -311 0
-312 -310 0
313 -301 -312 0
-313 301 0
-313 312 0
314 301 312 0
-314 -301 0
-314 -312 0
315 313 314 0
-315 -313 0
-315 -314 0
316 309 223 0
-316 -309 0
-316 -223 0
317 -27 309 0
-317 27 0
-317 -309 0
318 -27 223 0
-318 27 0
-318 -223 0
319 317 318 0
-319 -317 0
-319 -318 0
320 316 -319 0
-320 -316 0
-320 319 0
321 27 223 0
-321 -27 0
-321 -223 0
322 -27 -223 0
-322 27 0
-322 223 0
323 321 322 0
-323 -321 0
-323 -322 0
324 309 -323 0
-324 -309 0
-324 323 0
325 -309 323 0
-325 309 0
-325 -323 0
326 324 325 0
-326 -324 0
-326 -325 0
327 320 234 0
-327 -320 0
-327 -234 0
328 -28 320 0
-328 28 0
-328 -320 0
329 -28 234 0
-329 28 0
-329 -234 0
330 328 329 0
-330 -328 0
-330 -329 0
331 327 -330 0
-331 -327 0
-331 330 0
332 28 234 0
-332 -28 0
-332 -234 0
333 -28 -234 0
-333 28 0
-333 234 0
334 333 332 0
-334 -333 0
-334 -332 0
335 320 -334 0
-335 -320 0
-335 334 0
336 -320 334 0
-336 320 0
-336 -334 0
337 336 335 0
-337 -336 0
-337 -335 0
338 245 331 0
-338 -245 0
-338 -331 0
339 -29 331 0
-339 29 0
-339 -331 0
340 -29 245 0
-340 29 0
-340 -245 0
341 340 339 0
-341 -340 0
-341 -339 0
342 -341 338 0
-342 341 0
-342 -338 0
343 29 245 0
-343 -29 0
-343 -245 0
344 -29 -245 0
-344 29 0
-344 245 0
345 343 344 0
-345 -343 0
-345 -344 0
346 -345 331 0
-346 345 0
-346 -331 0
347 345 -331 0
-347 -345 0
-347 331 0
348 346 347 0
-348 -346 0
-348 -347 0
349 342 256 0
-349 -342 0
-349 -256 0
350 -30 342 0
-350 30 0
-350 -342 0
351 -30 256 0
-351 30 0
-351 -256 0
352 350 351 0
-352 -350 0
-352 -351 0
353 349 -352 0
-353 -349 0
-353 352 0
354 30 256 0
-354 -30 0
-354 -256 0
355 -30 -256 0
-355 30 0
-355 256 0
356 354 355 0
-356 -354 0
-356 -355 0
357 342 -356 0
-357 -342 0
-357 356 0
358 -342 356 0
-358 342 0
-358 -356 0
359 357 358 0
-359 -357 0
-359 -358 0
360 267 353 0
-360 -267 0
-360 -353 0
361 -38 353 0
-361 38 0
-361 -353 0
362 -38 267 0
-362 38 0
-362 -267 0
363 362 361 0
-363 -362 0
-363 -361 0
364 -363 360 0
-364 363 0
-364 -360 0
365 38 267 0
-365 -38 0
-365 -267 0
366 -38 -267 0
-366 38 0
-366 267 0
367 366 365 0
-367 -366 0
-367 -365 0
368 -367 353 0
-368 367 0
-368 -353 0
369 367 -353 0
-369 -367 0
-369 353 0
370 368 369 0
-370 -368 0
-370 -369 0
371 278 364 0
-371 -278 0
-371 -364 0
372 -46 364 0
-372 46 0
-372 -364 0
373 -46 278 0
-373 46 0
-373 -278 0
374 373 372 0
-374 -373 0
-374 -372 0
375 371 -374 0
-375 -371 0
-375 374 0
376 46 278 0
-376 -46 0
-376 -278 0
377 -46 -278 0
-377 46 0
-377 278 0
378 377 376 0
-378 -377 0
-378 -376 0
379 -378 364 0
-379 378 0
-379 -364 0
380 378 -364 0
-380 -378 0
-380 364 0
381 380 379 0
-381 -380 0
-381 -379 0
382 289 375 0
-382 -289 0
-382 -375 0
383 -54 375 0
-383 54 0
-383 -375 0
384 -54 289 0
-384 54 0
-384 -289 0
385 384 383 0
-385 -384 0
-385 -383 0
386 382 -385 0
-386 -382 0
-386 385 0
387 54 289 0
-387 -54 0
-387 -289 0
388 -54 -289 0
-388 54 0
-388 289 0
389 388 387 0
-389 -388 0
-389 -387 0
390 -389 375 0
-390 389 0
-390 -375 0
391 389 -375 0
-391 -389 0
-391 375 0
392 390 391 0
-392 -390 0
-392 -391 0
393 386 300 0
-393 -386 0
-393 -300 0
394 -62 386 0
-394 62 0
-394 -386 0
395 -62 300 0
-395 62 0
-395 -300 0
396 394 395 0
-396 -394 0
-396 -395 0
397 393 -396 0
-397 -393 0
-397 396 0
398 62 300 0
-398 -62 0
-398 -300 0
399 -62 -300 0
-399 62 0
-399 300 0
400 398 399 0
-400 -398 0
-400 -399 0
401 -400 386 0
-401 400 0
-401 -386 0
402 400 -386 0
-402 -400 0
-402 386 0
403 401 402 0
-403 -401 0
-403 -402 0
404 294 397 0
-404 -294 0
-404 -397 0
405 -70 397 0
-405 70 0
-405 -397 0
406 -70 294 0
-406 70 0
-406 -294 0
407 406 405 0
-407 -406 0
-407 -405 0
408 -407 404 0
-408 407 0
-408 -404 0
409 70 294 0
-409 -70 0
-409 -294 0
410 -70 -294 0
-410 70 0
-410 294 0
411 410 409 0
-411 -410 0
-411 -409 0
412 -411 397 0
-412 411 0
-412 -397 0
413 411 -397 0
-413 -411 0
-413 397 0
414 412 413 0
-414 -412 0
-414 -413 0
415 -17 24 0
-415 17 0
-415 -24 0
416 -24 17 0
-416 24 0
-416 -17 0
417 415 416 0
-417 -415 0
-417 -416 0
418 -24 -17 0
-418 24 0
-418 17 0
419 -18 -304 0
-419 18 0
-419 304 0
420 18 304 0
-420 -18 0
-420 -304 0
421 419 420 0
-421 -419 0
-421 -420 0
422 -418 -421 0
-422 418 0
-422 421 0
423 418 421 0
-423 -418 0
-423 -421 0
424 422 423 0
-424 -422 0
-424 -423 0
425 -18 -418 0
-425 18 0
-425 418 0
426 -418 304 0
-426 418 0
-426 -304 0
427 -18 304 0
-427 18 0
-427 -304 0
428 427 426 0
-428 -427 0
-428 -426 0
429 425 -428 0
-429 -425 0
-429 428 0
430 -19 -315 0
-430 19 0
-430 315 0
431 19 315 0
-431 -19 0
-431 -315 0
432 431 430 0
-432 -431 0
-432 -430 0
433 429 -432 0
-433 -429 0
-433 432 0
434 -429 432 0
-434 429 0
-434 -432 0
435 434 433 0
-435 -434 0
-435 -433 0
436 -19 429 0
-436 19 0
-436 -429 0
437 429 315 0
-437 -429 0
-437 -315 0
438 -19 315 0
-438 19 0
-438 -315 0
439 437 438 0
-439 -437 0
-439 -438 0
440 436 -439 0
-440 -436 0
-440 439 0
441 -20 -326 0
-441 20 0
-441 326 0
442 20 326 0
-442 -20 0
-442 -326 0
443 442 441 0
-443 -442 0
-443 -441 0
444 440 -443 0
-444 -440 0
-444 443 0
445 -440 443 0
-445 440 0
-445 -443 0
446 444 445 0
-446 -444 0
-446 -445 0
447 -20 440 0
-447 20 0
-447 -440 0
448 440 326 0
-448 -440 0
-448 -326 0
449 -20 326 0
-449 20 0
-449 -326 0
450 448 449 0
-450 -448 0
-450 -449 0
451 -450 447 0
-451 450 0
-451 -447 0
452 -21 -337 0
-452 21 0
-452 337 0
453 21 337 0
-453 -21 0
-453 -337 0
454 453 452 0
-454 -453 0
-454 -452 0
455 -454 451 0
-455 454 0
-455 -451 0
456 454 -451 0
-456 -454 0
-456 451 0
457 456 455 0
-457 -456 0
-457 -455 0
458 -21 451 0
-458 21 0
-458 -451 0
459 337 451 0
-459 -337 0
-459 -451 0
460 -21 337 0
-460 21 0
-460 -337 0
461 460 459 0
-461 -460 0
-461 -459 0
462 -461 458 0
-462 461 0
-462 -458 0
463 -22 -348 0
-463 22 0
-463 348 0
464 22 348 0
-464 -22 0
-464 -348 0
465 464 463 0
-465 -464 0
-465 -463 0
466 -465 462 0
-466 465 0
-466 -462 0
467 465 -462 0
-467 -465 0
-467 462 0
468 467 466 0
-468 -467 0
-468 -466 0
469 -22 462 0
-469 22 0
-469 -462 0
470 348 462 0
-470 -348 0
-470 -462 0
471 -22 348 0
-471 22 0
-471 -348 0
472 470 471 0
-472 -470 0
-472 -471 0
473 -472 469 0
-473 472 0
-473 -469 0
474 -23 -359 0
-474 23 0
-474 359 0
475 23 359 0
-475 -23 0
-475 -359 0
476 475 474 0
-476 -475 0
-476 -474 0
477 -476 473 0
-477 476 0
-477 -473 0
478 476 -473 0
-478 -476 0
-478 473 0
479 477 478 0
-479 -477 0
-479 -478 0
480 -23 473 0
-480 23 0
-480 -473 0
481 359 473 0
-481 -359 0
-481 -473 0
482 -23 359 0
-482 23 0
-482 -359 0
483 482 481 0
-483 -482 0
-483 -481 0
484 -483 480 0
-484 483 0
-484 -480 0
485 -31 -370 0
-485 31 0
-485 370 0
486 31 370 0
-486 -31 0
-486 -370 0
487 486 485 0
-487 -486 0
-487 -485 0
488 484 -487 0
-488 -484 0
-488 487 0
489 -484 487 0
-489 484 0
-489 -487 0
490 488 489 0
-490 -488 0
-490 -489 0
491 -31 484 0
-491 31 0
-491 -484 0
492 484 370 0
-492 -484 0
-492 -370 0
493 -31 370 0
-493 31 0
-493 -370 0
494 492 493 0
-494 -492 0
-494 -493 0
495 -494 491 0
-495 494 0
-495 -491 0
496 -39 -381 0
-496 39 0
-496 381 0
497 39 381 0
-497 -39 0
-497 -381 0
498 496 497 0
-498 -496 0
-498 -497 0
499 -498 495 0
-499 498 0
-499 -495 0
500 498 -495 0
-500 -498 0
-500 495 0
501 499 500 0
-501 -499 0
-501 -500 0
502 -39 495 0
-502 39 0
-502 -495 0
503 381 495 0
-503 -381 0
-503 -495 0
504 -39 381 0
-504 39 0
-504 -381 0
505 504 503 0
-505 -504 0
-505 -503 0
506 502 -505 0
-506 -502 0
-506 505 0
507 -47 -392 0
-507 47 0
-507 392 0
508 47 392 0
-508 -47 0
-508 -392 0
509 508 507 0
-509 -508 0
-509 -507 0
510 506 -509 0
-510 -506 0
-510 509 0
511 -506 509 0
-511 506 0
-511 -509 0
512 510 511 0
-512 -510 0
-512 -511 0
513 -47 506 0
-513 47 0
-513 -506 0
514 506 392 0
-514 -506 0
-514 -392 0
515 -47 392 0
-515 47 0
-515 -392 0
516 514 515 0
-516 -514 0
-516 -515 0
517 -516 513 0
-517 516 0
-517 -513 0
518 -55 -403 0
-518 55 0
-518 403 0
519 55 403 0
-519 -55 0
-519 -403 0
520 518 519 0
-520 -518 0
-520 -519 0
521 517 -520 0
-521 -517 0
-521 520 0
522 -517 520 0
-522 517 0
-522 -520 0
523 522 521 0
-523 -522 0
-523 -521 0
524 -55 517 0
-524 55 0
-524 -517 0
525 403 517 0
-525 -403 0
-525 -517 0
526 -55 403 0
-526 55 0
-526 -403 0
527 525 526 0
-527 -525 0
-527 -526 0
528 524 -527 0
-528 -524 0
-528 527 0
529 -63 -414 0
-529 63 0
-529 414 0
530 63 414 0
-530 -63 0
-530 -414 0
531 529 530 0
-531 -529 0
-531 -530 0
532 528 -531 0
-532 -528 0
-532 531 0
533 -528 531 0
-533 528 0
-533 -531 0
534 532 533 0
-534 -532 0
-534 -533 0
535 -63 528 0
-535 63 0
-535 -528 0
536 414 528 0
-536 -414 0
-536 -528 0
537 -63 414 0
-537 63 0
-537 -414 0
538 537 536 0
-538 -537 0
-538 -536 0
539 535 -538 0
-539 -535 0
-539 538 0
540 -71 -408 0
-540 71 0
-540 408 0
541 71 408 0
-541 -71 0
-541 -408 0
542 541 540 0
-542 -541 0
-542 -540 0
543 539 -542 0
-543 -539 0
-543 542 0
544 -539 542 0
-544 539 0
-544 -542 0
545 544 543 0
-545 -544 0
-545 -543 0
546 -71 539 0
-546 71 0
-546 -539 0
547 539 408 0
-547 -539 0
-547 -408 0
548 -71 408 0
-548 71 0
-548 -408 0
549 547 548 0
-549 -547 0
-549 -548 0
550 546 -549 0
-550 -546 0
-550 549 0
-551 16 0
551 -16 0
-552 -417 0
552 417 0
-553 -424 0
553 424 0
-554 -435 0
554 435 0
-555 -446 0
555 446 0
-556 -457 0
556 457 0
-557 -468 0
557 468 0
-558 -479 0
558 479 0
-559 -490 0
559 490 0
-560 -501 0
560 501 0
-561 -512 0
561 512 0
-562 -523 0
562 523 0
-563 -534 0
563 534 0
-564 -545 0
564 545 0
-565 -550 0
565 550 0
551 0
552 0
553 0
-554 0
555 0
-556 0
557 0
558 0
-559 0
-560 0
561 0
562 0
-563 0
-564 0
565 0
